Route #1: 56 55 33 31 62
Route #2: 36 4 13 57 26
Route #3: 5 45 39 53 9 1 14 49 25
Route #4: 48 30 38 43 52
Route #5: 46 37 54 7
Route #6: 28 32 22 58 24 21 61 29
Route #7: 41 2 12 6 27 23
Route #8: 20 50 44 47 34 11 51 17
Route #9: 18 59 10 19 42 3 15
Route #10: 60 8 35 16 40
cost 1567.9014892578125